630,81
672,434
822,600
723,364
829,554
1023,517
892,697
998,842
533,383
291,406
545,673
448,639
629,478
361,243
505,164
802,318
1051,286
745,605
524,891
450,860
745,605
810,805
1108,545
947,599
898,833
810,805
649,613
545,673
672,434
1117,89
802,318
621,406
622,397
814,338
852,351
1051,286
681,556
609,458
533,383
425,323
718,169
736,235
814,338
